
******************************************************************************
This program contains Ipopt, a library for large-scale nonlinear optimization.
 Ipopt is released as open source code under the Eclipse Public License (EPL).
         For more information visit http://projects.coin-or.org/Ipopt
******************************************************************************

This is Ipopt version 3.12.6, running with linear solver ma57.

Number of nonzeros in equality constraint Jacobian...:    14998
Number of nonzeros in inequality constraint Jacobian.:        0
Number of nonzeros in Lagrangian Hessian.............:     4998

Total number of variables............................:     5000
                     variables with only lower bounds:     5000
                variables with lower and upper bounds:        0
                     variables with only upper bounds:        0
Total number of equality constraints.................:     5000
Total number of inequality constraints...............:        0
        inequality constraints with only lower bounds:        0
   inequality constraints with lower and upper bounds:        0
        inequality constraints with only upper bounds:        0

iter    objective    inf_pr   inf_du lg(mu)  ||d||  lg(rg) alpha_du alpha_pr  ls
   0  0.0000000e+00 1.00e+00 1.00e+00  -1.0 0.00e+00    -  0.00e+00 0.00e+00   0
   1  0.0000000e+00 1.52e+00 4.24e+00  -1.7 5.22e+00    -  1.00e+00 1.90e-01h  1
   2  0.0000000e+00 1.34e-02 5.59e-02  -1.7 8.09e-01    -  1.00e+00 9.91e-01h  1
   3  0.0000000e+00 2.18e-11 1.15e-08  -3.8 7.12e-03    -  1.00e+00 1.00e+00h  1

Number of Iterations....: 3

                                   (scaled)                 (unscaled)
Objective...............:   0.0000000000000000e+00    0.0000000000000000e+00
Dual infeasibility......:   0.0000000000000000e+00    0.0000000000000000e+00
Constraint violation....:   2.1825694971034019e-16    2.1827872842550278e-11
Complementarity.........:   0.0000000000000000e+00    0.0000000000000000e+00
Overall NLP error.......:   2.1825694971034019e-16    2.1827872842550278e-11


Number of objective function evaluations             = 4
Number of objective gradient evaluations             = 4
Number of equality constraint evaluations            = 4
Number of inequality constraint evaluations          = 0
Number of equality constraint Jacobian evaluations   = 4
Number of inequality constraint Jacobian evaluations = 0
Number of Lagrangian Hessian evaluations             = 3
Total CPU secs in IPOPT (w/o function evaluations)   =      0.023
Total CPU secs in NLP function evaluations           =      0.013

EXIT: Optimal Solution Found.
Note: The following floating-point exceptions are signalling: IEEE_INVALID_FLAG IEEE_DIVIDE_BY_ZERO IEEE_UNDERFLOW_FLAG IEEE_DENORMAL

************************ CUTEst statistics ************************


 Package used            :  IPOPT
 Problem                 :  CHEMRCTB  
 # variables             =            5000
 # constraints           =            5000
 # objective functions   =        0.9000000E+01
 # objective gradients   =        0.5000000E+01
 # objective Hessians    =        0.4000000E+01
 # Hessian-vector prdct  =        0.0000000E+00
 # constraints functions =        0.1000000E+02
 # constraints gradients =        0.6000000E+01
 # constraints Hessians  =        0.4000000E+01
 Exit code               =               0
 Final f                 =   0.0000000E+00
 Set up time             =            0.08 seconds
 Solve time              =            0.09 seconds


******************************************************************

System Time =       0.0309999995 s.
